language ESSENCE' 1.0

letting jobs = 102
letting horizon = 770
letting resourcesRenew = 2
letting resourcesNonrenew = 2
letting resourceLimits = [63, 64, 411, 390]
letting successors = [[2, 3, 4, 5, 6, 7, 8, 9, 10, 11, 12, 15, 16, 17, 18, 19, 20, 24, 25, 27, 30, 32, 33, 41], [101, 100, 94, 67, 60, 57, 46, 44, 42, 40, 39, 38, 34, 29, 23, 13], [98, 92, 91, 68, 67, 64, 61, 58, 56, 53, 42, 38, 37, 36, 34, 31, 21], [98, 94, 93, 67, 57, 56, 54, 52, 50, 48, 47, 44, 34, 29, 26, 21], [98, 96, 64, 62, 60, 52, 43, 42, 39, 34, 28, 14], [101, 100, 98, 97, 93, 91, 68, 67, 66, 64, 61, 60, 58, 52, 49, 48, 47, 45, 36, 34, 31, 29], [101, 100, 97, 90, 64, 62, 60, 56, 54, 52, 50, 49, 44, 43, 22], [100, 97, 92, 91, 90, 89, 88, 82, 63, 62, 61, 60, 59, 57, 56, 54, 43, 35], [97, 96, 94, 93, 90, 82, 76, 67, 62, 61, 60, 49, 43, 28], [100, 99, 98, 96, 95, 93, 92, 91, 89, 86, 84, 82, 81, 76, 63, 62, 57, 56, 55, 50, 47], [101, 100, 99, 98, 90, 89, 85, 84, 82, 81, 71, 67, 65, 63, 61, 60, 52, 39, 37], [98, 95, 93, 92, 91, 83, 79, 74, 70, 67, 64, 63, 61, 60, 51, 49, 45, 34], [97, 93, 92, 91, 90, 89, 81, 68, 64, 62, 61, 59, 56, 50, 48, 45, 43], [100, 97, 86, 67, 66, 61, 59, 58, 57, 56, 46, 44, 35], [98, 94, 93, 83, 80, 76, 71, 67, 64, 60, 54, 47, 29], [96, 94, 90, 87, 67, 66, 60, 59, 56, 52, 50, 48, 45, 42], [101, 100, 98, 97, 95, 91, 88, 85, 80, 74, 73, 67, 64, 60, 59, 56, 45, 43], [96, 93, 92, 91, 90, 89, 88, 84, 83, 82, 78, 75, 69, 47, 40], [101, 98, 94, 92, 91, 89, 88, 87, 84, 81, 80, 77, 73, 66, 62, 59, 55, 46], [100, 99, 98, 96, 92, 88, 87, 85, 83, 82, 81, 80, 79, 67, 65, 61, 60, 59, 56], [100, 99, 97, 95, 89, 88, 87, 86, 83, 81, 80, 66, 65, 63, 60, 59, 45], [98, 96, 94, 93, 92, 91, 84, 82, 81, 80, 71, 69, 66, 63, 61, 59, 47], [98, 97, 92, 91, 83, 63, 61, 47, 36], [96, 92, 91, 90, 86, 83, 62, 59, 49, 47, 45], [94, 92, 89, 84, 83, 82, 79, 78, 71, 67, 66, 65, 63, 59, 57], [99, 91, 89, 88, 87, 83, 80, 76, 72, 71, 70, 69, 68, 64, 61, 60], [93, 91, 90, 89, 83, 73, 69, 66, 65, 62, 59, 48], [95, 92, 86, 85, 84, 83, 81, 80, 72, 70, 69, 66, 63, 56], [96, 95, 92, 90, 89, 88, 87, 85, 82, 79, 78, 77, 74, 73, 72, 70, 69], [95, 85, 84, 83, 81, 79, 78, 77, 73, 71, 70, 69, 66, 59], [94, 89, 84, 82, 77, 76, 75, 73, 70, 50], [94, 93, 90, 84, 82, 77, 74, 73, 70, 51], [93, 91, 90, 89, 88, 87, 86, 82, 80, 79, 75, 74, 73, 69], [90, 88, 85, 84, 82, 81, 80, 77, 75, 73, 71, 59], [94, 87, 85, 84, 78, 77, 76, 75, 72, 71, 69, 65], [96, 90, 85, 81, 80, 79, 76, 69, 62], [97, 94, 93, 83, 79, 75, 70, 69, 59], [96, 71, 70, 69, 47], [91, 86, 77, 76, 75, 73, 72, 69, 66], [97, 86, 81, 77, 76, 73, 65, 62], [88, 86, 81, 79, 76, 74, 73, 71, 69], [93, 86, 80, 76, 74, 73, 72, 70], [99, 86, 84, 79, 75, 71, 65], [95, 88, 79, 78, 74, 73, 65], [84, 78, 76, 75, 72, 71, 69], [85, 83, 82, 75, 74, 70, 69], [87, 85, 79, 77, 74, 72], [82, 80, 79, 77, 75, 70], [89, 87, 78, 75, 71, 69], [88, 83, 80, 72, 69], [81, 78, 72, 71, 69], [78, 76, 73, 72], [82, 73, 71, 70], [95, 81, 66], [71, 69, 65], [78, 77, 71], [80, 74, 73], [81, 70, 69], [76, 72], [77, 75], [78, 73], [71, 70], [75, 73], [86, 78], [70], [74], [69], [74], [102], [102], [102], [102], [102], [102], [102], [102], [102], [102], [102], [102], [102], [102], [102], [102], [102], [102], [102], [102], [102], [102], [102], [102], [102], [102], [102], [102], [102], [102], [102], [102], [102], []]
letting durations = [[0], [3, 9, 9], [1, 5, 6], [1, 7, 10], [1, 5, 10], [3, 4, 5], [5, 6, 9], [4, 5, 9], [2, 2, 6], [3, 4, 8], [3, 3, 8], [2, 8, 9], [5, 6, 7], [3, 5, 8], [7, 8, 8], [4, 6, 8], [6, 6, 7], [2, 7, 10], [2, 6, 9], [1, 4, 5], [2, 3, 5], [5, 6, 7], [2, 2, 7], [1, 2, 7], [1, 2, 2], [1, 2, 8], [5, 8, 8], [2, 2, 3], [5, 7, 10], [4, 5, 9], [2, 4, 5], [1, 7, 8], [2, 7, 9], [7, 10, 10], [3, 5, 9], [3, 9, 10], [3, 5, 9], [5, 9, 10], [1, 5, 8], [4, 7, 9], [3, 5, 10], [6, 8, 9], [2, 3, 3], [4, 5, 9], [1, 4, 6], [3, 6, 9], [4, 6, 7], [4, 4, 5], [2, 6, 6], [3, 7, 10], [2, 5, 10], [1, 3, 9], [4, 5, 7], [7, 8, 8], [3, 4, 5], [1, 8, 10], [2, 5, 6], [4, 7, 10], [4, 8, 8], [1, 3, 6], [3, 5, 6], [4, 6, 7], [1, 4, 10], [1, 3, 6], [2, 4, 6], [3, 5, 6], [2, 3, 7], [5, 6, 6], [2, 4, 7], [3, 6, 9], [2, 3, 5], [3, 4, 5], [2, 3, 10], [2, 7, 8], [7, 8, 9], [6, 8, 9], [2, 3, 7], [1, 6, 7], [4, 9, 10], [2, 3, 7], [2, 3, 4], [1, 6, 9], [5, 8, 10], [3, 5, 6], [3, 5, 9], [1, 4, 10], [3, 9, 10], [4, 5, 9], [7, 8, 10], [6, 6, 7], [4, 5, 7], [3, 7, 8], [1, 2, 9], [1, 4, 10], [2, 3, 9], [4, 7, 9], [1, 2, 4], [1, 1, 3], [1, 6, 7], [6, 7, 8], [2, 7, 8], [0]]
letting resourceUsage = [[[0, 0, 0, 0]], [[4, 4, 0, 8], [3, 3, 0, 7], [1, 3, 10, 0]], [[4, 2, 2, 0], [4, 1, 0, 4], [4, 1, 1, 0]], [[5, 5, 6, 0], [5, 3, 0, 7], [5, 3, 0, 4]], [[3, 4, 0, 2], [2, 4, 7, 0], [1, 4, 0, 2]], [[3, 2, 0, 7], [2, 2, 0, 5], [2, 2, 3, 0]], [[3, 3, 0, 5], [2, 1, 0, 3], [1, 1, 1, 0]], [[5, 1, 0, 4], [3, 1, 0, 4], [1, 1, 2, 0]], [[3, 1, 2, 0], [1, 1, 0, 2], [1, 1, 0, 1]], [[4, 4, 0, 7], [3, 4, 0, 3], [3, 4, 0, 2]], [[3, 3, 3, 0], [2, 2, 0, 4], [2, 1, 0, 3]], [[5, 4, 0, 3], [4, 2, 4, 0], [3, 1, 0, 3]], [[5, 1, 0, 5], [3, 1, 0, 4], [2, 1, 0, 4]], [[3, 3, 0, 5], [2, 3, 7, 0], [2, 3, 6, 0]], [[4, 4, 0, 6], [3, 4, 5, 0], [3, 4, 0, 5]], [[5, 4, 0, 8], [5, 2, 5, 0], [5, 2, 0, 6]], [[5, 3, 7, 0], [3, 2, 0, 2], [3, 2, 0, 1]], [[2, 5, 0, 5], [2, 3, 0, 5], [2, 3, 0, 4]], [[3, 4, 0, 5], [2, 4, 5, 0], [2, 3, 2, 0]], [[2, 5, 8, 0], [2, 5, 0, 7], [1, 5, 0, 7]], [[3, 3, 0, 5], [2, 3, 0, 5], [2, 3, 3, 0]], [[2, 4, 9, 0], [2, 3, 6, 0], [1, 3, 4, 0]], [[4, 5, 0, 10], [4, 3, 5, 0], [4, 2, 3, 0]], [[2, 5, 0, 9], [1, 4, 0, 7], [1, 2, 6, 0]], [[3, 3, 9, 0], [1, 3, 0, 5], [1, 3, 8, 0]], [[4, 5, 0, 6], [2, 4, 6, 0], [2, 3, 0, 2]], [[4, 5, 0, 8], [3, 4, 0, 5], [2, 3, 2, 0]], [[5, 3, 6, 0], [4, 3, 0, 4], [4, 3, 0, 3]], [[3, 3, 0, 3], [3, 2, 0, 1], [2, 2, 1, 0]], [[3, 3, 0, 7], [3, 3, 4, 0], [3, 2, 4, 0]], [[3, 4, 2, 0], [3, 4, 0, 8], [3, 3, 0, 7]], [[3, 4, 9, 0], [2, 4, 7, 0], [2, 4, 0, 2]], [[1, 1, 10, 0], [1, 1, 8, 0], [1, 1, 6, 0]], [[2, 3, 10, 0], [1, 3, 0, 4], [1, 3, 3, 0]], [[3, 5, 3, 0], [3, 5, 0, 9], [2, 5, 2, 0]], [[3, 3, 6, 0], [3, 3, 4, 0], [3, 1, 2, 0]], [[5, 5, 7, 0], [4, 3, 0, 6], [4, 3, 5, 0]], [[2, 4, 0, 4], [2, 4, 5, 0], [2, 3, 5, 0]], [[2, 1, 0, 10], [2, 1, 0, 9], [2, 1, 8, 0]], [[3, 5, 6, 0], [3, 4, 5, 0], [3, 4, 0, 7]], [[4, 5, 0, 9], [4, 4, 4, 0], [4, 4, 0, 8]], [[5, 1, 0, 5], [4, 1, 0, 4], [3, 1, 6, 0]], [[4, 3, 0, 5], [3, 3, 9, 0], [1, 3, 0, 1]], [[4, 4, 4, 0], [4, 2, 3, 0], [3, 2, 2, 0]], [[1, 5, 0, 4], [1, 4, 7, 0], [1, 4, 0, 3]], [[3, 1, 8, 0], [2, 1, 0, 4], [2, 1, 0, 3]], [[3, 1, 6, 0], [2, 1, 0, 6], [2, 1, 0, 4]], [[4, 3, 7, 0], [4, 3, 0, 7], [4, 2, 3, 0]], [[4, 3, 3, 0], [4, 3, 2, 0], [4, 3, 0, 7]], [[3, 3, 0, 6], [3, 1, 2, 0], [1, 1, 0, 3]], [[4, 3, 0, 9], [3, 2, 3, 0], [2, 2, 0, 2]], [[2, 3, 0, 7], [2, 2, 4, 0], [2, 2, 0, 5]], [[4, 1, 3, 0], [3, 1, 2, 0], [2, 1, 0, 3]], [[3, 3, 8, 0], [3, 3, 7, 0], [3, 3, 0, 5]], [[1, 3, 7, 0], [1, 2, 5, 0], [1, 2, 2, 0]], [[4, 3, 9, 0], [3, 2, 0, 4], [3, 2, 2, 0]], [[4, 5, 5, 0], [4, 3, 0, 5], [4, 3, 4, 0]], [[3, 4, 0, 2], [3, 3, 7, 0], [2, 3, 0, 2]], [[3, 3, 1, 0], [2, 3, 0, 6], [1, 3, 1, 0]], [[2, 3, 0, 8], [2, 2, 6, 0], [2, 2, 0, 4]], [[4, 2, 4, 0], [3, 2, 2, 0], [2, 2, 0, 5]], [[4, 4, 7, 0], [4, 3, 0, 7], [4, 2, 0, 6]], [[2, 3, 0, 8], [2, 2, 0, 4], [2, 2, 6, 0]], [[4, 4, 9, 0], [3, 4, 0, 7], [2, 4, 0, 6]], [[1, 1, 9, 0], [1, 1, 8, 0], [1, 1, 0, 5]], [[5, 5, 6, 0], [4, 3, 4, 0], [3, 3, 0, 4]], [[2, 3, 6, 0], [2, 2, 5, 0], [2, 2, 0, 4]], [[3, 4, 2, 0], [3, 4, 0, 1], [3, 4, 1, 0]], [[5, 3, 2, 0], [4, 3, 2, 0], [4, 3, 0, 8]], [[5, 5, 5, 0], [3, 5, 0, 7], [3, 5, 0, 6]], [[3, 5, 6, 0], [3, 5, 0, 5], [3, 5, 0, 3]], [[5, 4, 4, 0], [3, 4, 0, 6], [3, 2, 0, 6]], [[2, 3, 4, 0], [1, 3, 0, 4], [1, 3, 0, 3]], [[4, 3, 9, 0], [4, 2, 8, 0], [4, 2, 0, 8]], [[5, 4, 0, 8], [3, 3, 0, 6], [2, 3, 3, 0]], [[4, 5, 9, 0], [4, 5, 5, 0], [4, 5, 4, 0]], [[5, 1, 9, 0], [4, 1, 0, 8], [3, 1, 4, 0]], [[4, 3, 6, 0], [2, 3, 0, 6], [1, 1, 0, 1]], [[3, 5, 0, 5], [3, 4, 0, 4], [3, 4, 0, 1]], [[4, 3, 9, 0], [3, 3, 9, 0], [1, 3, 0, 2]], [[3, 3, 8, 0], [3, 2, 0, 5], [2, 2, 0, 4]], [[5, 3, 0, 6], [4, 3, 2, 0], [3, 3, 2, 0]], [[1, 5, 7, 0], [1, 3, 0, 9], [1, 3, 4, 0]], [[4, 4, 0, 5], [2, 3, 0, 3], [2, 2, 4, 0]], [[4, 2, 0, 4], [3, 1, 6, 0], [3, 1, 0, 4]], [[4, 4, 9, 0], [4, 2, 8, 0], [4, 1, 0, 4]], [[4, 3, 0, 9], [2, 3, 3, 0], [2, 1, 0, 2]], [[3, 3, 5, 0], [1, 2, 0, 6], [1, 2, 4, 0]], [[5, 3, 0, 7], [5, 2, 0, 6], [5, 2, 2, 0]], [[3, 3, 0, 7], [2, 2, 6, 0], [2, 2, 0, 6]], [[4, 3, 0, 5], [4, 3, 3, 0], [4, 1, 0, 4]], [[4, 5, 8, 0], [4, 3, 7, 0], [4, 3, 0, 4]], [[5, 3, 3, 0], [5, 2, 0, 5], [5, 1, 2, 0]], [[3, 1, 6, 0], [2, 1, 3, 0], [1, 1, 3, 0]], [[3, 2, 0, 9], [2, 2, 5, 0], [2, 2, 0, 9]], [[5, 5, 6, 0], [4, 4, 3, 0], [4, 4, 2, 0]], [[5, 4, 8, 0], [3, 3, 4, 0], [3, 2, 3, 0]], [[3, 3, 0, 10], [3, 2, 8, 0], [2, 2, 0, 6]], [[5, 3, 9, 0], [4, 3, 0, 5], [4, 3, 0, 4]], [[1, 4, 6, 0], [1, 3, 0, 4], [1, 2, 6, 0]], [[2, 3, 5, 0], [2, 3, 4, 0], [2, 2, 5, 0]], [[0, 0, 0, 0]]]
